p cnf 32 33
-13 -16 0
-6 -10 0
-6 -7 -8 0
-2 -6 -7 0
-11 -14 0
-5 -8 -12 0
-2 -19 0
-4 -21 -22 0
-4 -11 -24 0
-6 -12 -23 0
-5 -11 -12 0
-6 -11 -21 0
-4 -11 -31 0
-6 -22 -23 0
-6 -20 -23 0
-23 -27 -30 0
-26 -27 -29 0
-23 -27 -32 0
-4 -25 0
-4 -11 -23 -28 0
-8 -35 0
-8 -9 -15 0
-11 -13 -18 0
-8 -13 -33 0
-4 -23 -32 0
-6 -8 -32 0
-6 -11 -24 0
-23 -26 -32 0
-25 -26 -32 0
-13 -27 -29 0
-21 -27 0
-2 -6 -22 0
-1 -7 0
